143 300 246 238 232 239 250 209 236 248 241 240 202 213 238 220 203 205 210 235 245 247 238 203 214 239 224 239 217 243 245 217 200 241 204 206 203 203 215 239 225 206 203 227 244 241 221 221 220 231 205 214 202 243 217 241 231 215 229 223 208 249 240 208 213 244 239 216 221 228 230 247 208 233 248 201 248 219 222 217 224 228 205 200 245 248 241 200 212 245 223 220 243 212 202 205 230 241 221 200 244 225 221 201 207 219 228 204 212 250 246 210 201 201 211 247 249 201 221 210 246 244 205 238 230 232 217 209 223 213 234 216 238 205 242 246 224 219 224 210 244 245 220 245 246 